%rwf=/Storage01/hugo/chalcona
%int=/Storage01/hugo/chalcona
%d2e=/Storage01/hugo/chalcona
%nosave
%nprocshared=8
%mem=16GB
%chk=nh2_m062x
# opt freq=noraman X3LYP/6-31+G(d) volume scrf=(smd,solvent=water) scf=xqc 

nh2_m062x

N          0.000000          0.000000          0.141350          
H          0.000000          0.804810          -0.494724          
H          0.000000          -0.804810          -0.494724          


