%rwf=/Storage01/hugo/chalcona
%int=/Storage01/hugo/chalcona
%d2e=/Storage01/hugo/chalcona
%nosave
%nprocshared=8
%mem=16GB
%chk=nh3oh_ts_m062x
# opt freq=noraman X3LYP/6-31+G(d) volume scrf=(smd,solvent=water) scf=xqc 

nh3oh_ts_m062x

H          -1.261159          0.832172          0.281122          
O          -1.193778          -0.091813          -0.006636          
H          0.133417          -0.230775          -0.415647          
N          1.154323          -0.045509          -0.093786          
H          1.309445          -0.503987          0.802453          
H          1.288257          0.955654          0.041660          


