%rwf=/Storage01/nayara/chalcona
%int=/Storage01/nayara/chalcona
%d2e=/Storage01/nayara/chalcona
%nosave
%nprocshared=8
%mem=12GB
%chk=benz
# freq=noraman b3lyp/6-31+G** volume scrf=(smd,solvent=water) scf=xqc

Title Card Required

0 1
 C                  2.48807700   -0.23285900   -0.01840200
 C                  3.66110100   -0.94158100    0.29972200
 C                  4.89742800   -0.29907400    0.31698400
 C                  4.98361300    1.06247900    0.00066800
 C                  3.82696300    1.77499000   -0.32855900
 C                  2.58527000    1.13493700   -0.33120900
 C                  1.18842100   -0.98166200   -0.03461400
 C                 -0.07475500   -0.21658800    0.03468500
 O                  1.19399200   -2.21939400   -0.08856500
 H                  3.58392500   -1.99723600    0.53686000
 H                  5.79328700   -0.85568800    0.57548400
 H                  5.94700300    1.56372100    0.00982900
 H                  3.88949600    2.82838000   -0.58413500
 H                  1.70400200    1.70544900   -0.60239700
 C                 -5.01968000   -0.55617200   -0.14190400
 C                 -3.72366500   -1.07154200   -0.19185000
 C                 -2.60193700   -0.23618900   -0.01413000
 C                 -2.82134300    1.13873500    0.21815600
 C                 -4.11479500    1.65214300    0.26852000
 C                 -5.21926600    0.80795900    0.08831800
 H                 -5.87000900   -1.21670300   -0.28186100
 H                 -3.57092100   -2.13252700   -0.37012900
 H                 -1.97999800    1.80892800    0.36229100
 H                 -4.26597800    2.71220300    0.44899000
 H                 -6.22584600    1.21335600    0.12825400
 C                 -1.27065700   -0.83781400   -0.07825300
 H(Iso=2)          -0.01640800    0.85332800    0.19477700
 H                 -1.24914200   -1.91463600   -0.23823000

 