%rwf=/Storage01/nayara/chalcona
%int=/Storage01/nayara/chalcona
%d2e=/Storage01/nayara/chalcona
%nosave
%nprocshared=8
%mem=12GB
%chk=benz
# freq=noraman b3lyp/6-31+G** volume scrf=(smd,solvent=water) scf=xqc

Title Card Required

-1 1
 C                 -2.16297200   -0.28930500    0.40104200
 C                 -2.72444400    0.77557300    1.12727600
 C                 -3.69965400    1.60006800    0.56148400
 C                 -4.15066300    1.36342300   -0.74344100
 C                 -3.61312100    0.29901600   -1.47247100
 C                 -2.62611500   -0.51646700   -0.90497700
 C                 -1.14779700   -1.19774100    1.07207000
 C                  0.13034900   -1.33209100    0.54631000
 O                 -1.57050000   -1.79307400    2.13825500
 H                 -2.38654900    0.95634400    2.14406800
 H                 -4.11008300    2.42556800    1.13732100
 H                 -4.91424600    1.99914900   -1.18299500
 H                 -3.96141100    0.10005500   -2.48268600
 H                 -2.21829000   -1.34310400   -1.48007900
 H(Iso=2)           0.81739600   -1.98175600    1.08996200
 C                  4.45671200   -0.20297500    0.05507100
 C                  3.22347900   -0.76932200   -0.27927200
 C                  2.05988500    0.01535400   -0.32501300
 C                  2.16940800    1.38530700   -0.04256600
 C                  3.40118700    1.95683100    0.29253900
 C                  4.55184600    1.16338600    0.34486900
 H                  5.34574800   -0.82757500    0.08584000
 H                  3.15931500   -1.82699300   -0.51576000
 H                  1.27996200    2.01014600   -0.08226500
 H                  3.46226800    3.02059000    0.50651500
 H                  5.51099700    1.60408500    0.60187100
 C                  0.69895800   -0.59684000   -0.62219400
 O                  0.86092400   -1.46488400   -1.80396600
 H                  0.02242600    0.21468100   -0.91355900
 H(Iso=2)           0.26671300   -2.21282700   -1.64690400

