%rwf=/Storage01/hugo/chalcona_deut
%int=/Storage01/hugo/chalcona_deut
%d2e=/Storage01/hugo/chalcona_deut
%nosave
%nprocshared=8
%mem=16GB
%chk=h
# opt freq=noraman X3LYP/6-31+G(d) volume scrf=(smd,solvent=water) scf=xqc 

h

H          0.000000          0.000000          0.000000          


