%rwf=/Storage01/hugo/chalcona_deut
%int=/Storage01/hugo/chalcona_deut
%d2e=/Storage01/hugo/chalcona_deut
%nosave
%nprocshared=8
%mem=16GB
%chk=nh3_m062x
# opt freq=noraman X3LYP/6-31+G(d) volume scrf=(smd,solvent=water) scf=xqc 

nh3_m062x

N          0.000000          0.000000          0.116090          
H          0.000000          0.938890          -0.270877          
H          -0.813103          -0.469445          -0.270877          
H          0.813103          -0.469445          -0.270877          


